15 2 
2215	2215	
84	918	955	
186	596	619	
856	438	448	
393	669	686	
951	775	778	
560	77	82	
438	509	535	
704	971	992	
292	679	726	
549	498	509	
896	442	479	
369	505	533	
682	804	825	
104	743	769	
777	239	246	
